NAME           C:\Bruker\Hvattum\knapsack\Problems\class4\100-10-28.mps
ROWS
 N  OBJ
 L  CONSTR1
 L  CONSTR2
 L  CONSTR3
 L  CONSTR4
 L  CONSTR5
 L  CONSTR6
 L  CONSTR7
 L  CONSTR8
 L  CONSTR9
 L  CONSTR10
COLUMNS
    INT0001   'MARKER'  'INTORG'
    X1        OBJ       1062
    X1        CONSTR1   749
    X1        CONSTR2   821
    X1        CONSTR3   809
    X1        CONSTR4   347
    X1        CONSTR5   284
    X1        CONSTR6   851
    X1        CONSTR7   80
    X1        CONSTR8   774
    X1        CONSTR9   506
    X1        CONSTR10  455
    X2        OBJ       838
    X2        CONSTR1   429
    X2        CONSTR2   170
    X2        CONSTR3   440
    X2        CONSTR4   926
    X2        CONSTR5   797
    X2        CONSTR6   309
    X2        CONSTR7   999
    X2        CONSTR8   241
    X2        CONSTR9   516
    X2        CONSTR10  591
    X3        OBJ       865
    X3        CONSTR1   939
    X3        CONSTR2   516
    X3        CONSTR3   349
    X3        CONSTR4   577
    X3        CONSTR5   795
    X3        CONSTR6   215
    X3        CONSTR7   551
    X3        CONSTR8   427
    X3        CONSTR9   967
    X3        CONSTR10  963
    X4        OBJ       709
    X4        CONSTR1   514
    X4        CONSTR2   272
    X4        CONSTR3   955
    X4        CONSTR4   462
    X4        CONSTR5   989
    X4        CONSTR6   432
    X4        CONSTR7   717
    X4        CONSTR8   16
    X4        CONSTR9   980
    X4        CONSTR10  112
    X5        OBJ       550
    X5        CONSTR1   890
    X5        CONSTR2   537
    X5        CONSTR3   539
    X5        CONSTR4   553
    X5        CONSTR5   558
    X5        CONSTR6   824
    X5        CONSTR7   394
    X5        CONSTR8   79
    X5        CONSTR9   885
    X5        CONSTR10  190
    X6        OBJ       861
    X6        CONSTR1   858
    X6        CONSTR2   421
    X6        CONSTR3   175
    X6        CONSTR4   682
    X6        CONSTR5   634
    X6        CONSTR6   758
    X6        CONSTR7   971
    X6        CONSTR8   40
    X6        CONSTR9   136
    X6        CONSTR10  698
    X7        OBJ       583
    X7        CONSTR1   235
    X7        CONSTR2   319
    X7        CONSTR3   935
    X7        CONSTR4   780
    X7        CONSTR5   511
    X7        CONSTR6   627
    X7        CONSTR7   738
    X7        CONSTR8   384
    X7        CONSTR9   611
    X7        CONSTR10  6
    X8        OBJ       631
    X8        CONSTR1   53
    X8        CONSTR2   840
    X8        CONSTR3   826
    X8        CONSTR4   869
    X8        CONSTR5   535
    X8        CONSTR6   590
    X8        CONSTR7   770
    X8        CONSTR8   188
    X8        CONSTR9   113
    X8        CONSTR10  565
    X9        OBJ       399
    X9        CONSTR1   860
    X9        CONSTR2   122
    X9        CONSTR3   438
    X9        CONSTR4   596
    X9        CONSTR5   144
    X9        CONSTR6   296
    X9        CONSTR7   415
    X9        CONSTR8   546
    X9        CONSTR9   64
    X9        CONSTR10  451
    X10       OBJ       533
    X10       CONSTR1   886
    X10       CONSTR2   125
    X10       CONSTR3   690
    X10       CONSTR4   97
    X10       CONSTR5   711
    X10       CONSTR6   414
    X10       CONSTR7   210
    X10       CONSTR8   983
    X10       CONSTR9   71
    X10       CONSTR10  182
    X11       OBJ       513
    X11       CONSTR1   611
    X11       CONSTR2   251
    X11       CONSTR3   989
    X11       CONSTR4   323
    X11       CONSTR5   676
    X11       CONSTR6   618
    X11       CONSTR7   54
    X11       CONSTR8   59
    X11       CONSTR9   211
    X11       CONSTR10  100
    X12       OBJ       702
    X12       CONSTR1   866
    X12       CONSTR2   299
    X12       CONSTR3   865
    X12       CONSTR4   571
    X12       CONSTR5   906
    X12       CONSTR6   909
    X12       CONSTR7   84
    X12       CONSTR8   850
    X12       CONSTR9   656
    X12       CONSTR10  964
    X13       OBJ       870
    X13       CONSTR1   237
    X13       CONSTR2   380
    X13       CONSTR3   38
    X13       CONSTR4   614
    X13       CONSTR5   56
    X13       CONSTR6   965
    X13       CONSTR7   631
    X13       CONSTR8   548
    X13       CONSTR9   988
    X13       CONSTR10  426
    X14       OBJ       716
    X14       CONSTR1   519
    X14       CONSTR2   342
    X14       CONSTR3   219
    X14       CONSTR4   904
    X14       CONSTR5   136
    X14       CONSTR6   716
    X14       CONSTR7   396
    X14       CONSTR8   482
    X14       CONSTR9   398
    X14       CONSTR10  90
    X15       OBJ       901
    X15       CONSTR1   187
    X15       CONSTR2   607
    X15       CONSTR3   539
    X15       CONSTR4   780
    X15       CONSTR5   755
    X15       CONSTR6   991
    X15       CONSTR7   65
    X15       CONSTR8   610
    X15       CONSTR9   852
    X15       CONSTR10  897
    X16       OBJ       784
    X16       CONSTR1   617
    X16       CONSTR2   970
    X16       CONSTR3   537
    X16       CONSTR4   903
    X16       CONSTR5   434
    X16       CONSTR6   733
    X16       CONSTR7   666
    X16       CONSTR8   401
    X16       CONSTR9   109
    X16       CONSTR10  36
    X17       OBJ       548
    X17       CONSTR1   507
    X17       CONSTR2   260
    X17       CONSTR3   427
    X17       CONSTR4   554
    X17       CONSTR5   167
    X17       CONSTR6   100
    X17       CONSTR7   299
    X17       CONSTR8   236
    X17       CONSTR9   94
    X17       CONSTR10  85
    X18       OBJ       654
    X18       CONSTR1   708
    X18       CONSTR2   222
    X18       CONSTR3   707
    X18       CONSTR4   410
    X18       CONSTR5   492
    X18       CONSTR6   966
    X18       CONSTR7   314
    X18       CONSTR8   35
    X18       CONSTR9   59
    X18       CONSTR10  46
    X19       OBJ       678
    X19       CONSTR1   616
    X19       CONSTR2   229
    X19       CONSTR3   514
    X19       CONSTR4   486
    X19       CONSTR5   941
    X19       CONSTR6   39
    X19       CONSTR7   459
    X19       CONSTR8   649
    X19       CONSTR9   721
    X19       CONSTR10  54
    X20       OBJ       528
    X20       CONSTR1   607
    X20       CONSTR2   107
    X20       CONSTR3   720
    X20       CONSTR4   784
    X20       CONSTR5   558
    X20       CONSTR6   809
    X20       CONSTR7   320
    X20       CONSTR8   468
    X20       CONSTR9   215
    X20       CONSTR10  279
    X21       OBJ       392
    X21       CONSTR1   246
    X21       CONSTR2   534
    X21       CONSTR3   813
    X21       CONSTR4   78
    X21       CONSTR5   753
    X21       CONSTR6   125
    X21       CONSTR7   113
    X21       CONSTR8   146
    X21       CONSTR9   379
    X21       CONSTR10  94
    X22       OBJ       713
    X22       CONSTR1   195
    X22       CONSTR2   502
    X22       CONSTR3   676
    X22       CONSTR4   259
    X22       CONSTR5   527
    X22       CONSTR6   430
    X22       CONSTR7   124
    X22       CONSTR8   854
    X22       CONSTR9   320
    X22       CONSTR10  14
    X23       OBJ       542
    X23       CONSTR1   42
    X23       CONSTR2   718
    X23       CONSTR3   721
    X23       CONSTR4   447
    X23       CONSTR5   37
    X23       CONSTR6   278
    X23       CONSTR7   427
    X23       CONSTR8   169
    X23       CONSTR9   393
    X23       CONSTR10  721
    X24       OBJ       501
    X24       CONSTR1   929
    X24       CONSTR2   83
    X24       CONSTR3   375
    X24       CONSTR4   576
    X24       CONSTR5   40
    X24       CONSTR6   293
    X24       CONSTR7   184
    X24       CONSTR8   326
    X24       CONSTR9   701
    X24       CONSTR10  328
    X25       OBJ       351
    X25       CONSTR1   576
    X25       CONSTR2   90
    X25       CONSTR3   514
    X25       CONSTR4   229
    X25       CONSTR5   58
    X25       CONSTR6   148
    X25       CONSTR7   639
    X25       CONSTR8   220
    X25       CONSTR9   467
    X25       CONSTR10  524
    X26       OBJ       638
    X26       CONSTR1   227
    X26       CONSTR2   6
    X26       CONSTR3   289
    X26       CONSTR4   542
    X26       CONSTR5   784
    X26       CONSTR6   561
    X26       CONSTR7   380
    X26       CONSTR8   828
    X26       CONSTR9   771
    X26       CONSTR10  505
    X27       OBJ       473
    X27       CONSTR1   728
    X27       CONSTR2   94
    X27       CONSTR3   13
    X27       CONSTR4   457
    X27       CONSTR5   852
    X27       CONSTR6   3
    X27       CONSTR7   346
    X27       CONSTR8   831
    X27       CONSTR9   128
    X27       CONSTR10  452
    X28       OBJ       815
    X28       CONSTR1   312
    X28       CONSTR2   136
    X28       CONSTR3   929
    X28       CONSTR4   862
    X28       CONSTR5   562
    X28       CONSTR6   145
    X28       CONSTR7   282
    X28       CONSTR8   55
    X28       CONSTR9   937
    X28       CONSTR10  381
    X29       OBJ       897
    X29       CONSTR1   785
    X29       CONSTR2   978
    X29       CONSTR3   705
    X29       CONSTR4   817
    X29       CONSTR5   637
    X29       CONSTR6   85
    X29       CONSTR7   369
    X29       CONSTR8   471
    X29       CONSTR9   37
    X29       CONSTR10  439
    X30       OBJ       786
    X30       CONSTR1   176
    X30       CONSTR2   174
    X30       CONSTR3   642
    X30       CONSTR4   574
    X30       CONSTR5   177
    X30       CONSTR6   326
    X30       CONSTR7   338
    X30       CONSTR8   744
    X30       CONSTR9   799
    X30       CONSTR10  301
    X31       OBJ       955
    X31       CONSTR1   812
    X31       CONSTR2   712
    X31       CONSTR3   653
    X31       CONSTR4   460
    X31       CONSTR5   607
    X31       CONSTR6   82
    X31       CONSTR7   56
    X31       CONSTR8   853
    X31       CONSTR9   182
    X31       CONSTR10  265
    X32       OBJ       980
    X32       CONSTR1   435
    X32       CONSTR2   588
    X32       CONSTR3   220
    X32       CONSTR4   956
    X32       CONSTR5   680
    X32       CONSTR6   354
    X32       CONSTR7   700
    X32       CONSTR8   621
    X32       CONSTR9   294
    X32       CONSTR10  900
    X33       OBJ       333
    X33       CONSTR1   127
    X33       CONSTR2   196
    X33       CONSTR3   579
    X33       CONSTR4   483
    X33       CONSTR5   915
    X33       CONSTR6   193
    X33       CONSTR7   210
    X33       CONSTR8   207
    X33       CONSTR9   309
    X33       CONSTR10  90
    X34       OBJ       971
    X34       CONSTR1   986
    X34       CONSTR2   629
    X34       CONSTR3   321
    X34       CONSTR4   438
    X34       CONSTR5   930
    X34       CONSTR6   395
    X34       CONSTR7   935
    X34       CONSTR8   28
    X34       CONSTR9   839
    X34       CONSTR10  798
    X35       OBJ       810
    X35       CONSTR1   574
    X35       CONSTR2   15
    X35       CONSTR3   877
    X35       CONSTR4   49
    X35       CONSTR5   707
    X35       CONSTR6   101
    X35       CONSTR7   120
    X35       CONSTR8   400
    X35       CONSTR9   130
    X35       CONSTR10  312
    X36       OBJ       1091
    X36       CONSTR1   111
    X36       CONSTR2   802
    X36       CONSTR3   901
    X36       CONSTR4   396
    X36       CONSTR5   639
    X36       CONSTR6   901
    X36       CONSTR7   954
    X36       CONSTR8   657
    X36       CONSTR9   681
    X36       CONSTR10  871
    X37       OBJ       913
    X37       CONSTR1   792
    X37       CONSTR2   672
    X37       CONSTR3   431
    X37       CONSTR4   323
    X37       CONSTR5   597
    X37       CONSTR6   403
    X37       CONSTR7   979
    X37       CONSTR8   511
    X37       CONSTR9   973
    X37       CONSTR10  986
    X38       OBJ       691
    X38       CONSTR1   469
    X38       CONSTR2   330
    X38       CONSTR3   510
    X38       CONSTR4   449
    X38       CONSTR5   101
    X38       CONSTR6   430
    X38       CONSTR7   649
    X38       CONSTR8   689
    X38       CONSTR9   152
    X38       CONSTR10  907
    X39       OBJ       909
    X39       CONSTR1   657
    X39       CONSTR2   913
    X39       CONSTR3   88
    X39       CONSTR4   348
    X39       CONSTR5   412
    X39       CONSTR6   185
    X39       CONSTR7   356
    X39       CONSTR8   31
    X39       CONSTR9   716
    X39       CONSTR10  414
    X40       OBJ       526
    X40       CONSTR1   270
    X40       CONSTR2   717
    X40       CONSTR3   341
    X40       CONSTR4   592
    X40       CONSTR5   897
    X40       CONSTR6   411
    X40       CONSTR7   13
    X40       CONSTR8   190
    X40       CONSTR9   657
    X40       CONSTR10  208
    X41       OBJ       1131
    X41       CONSTR1   183
    X41       CONSTR2   993
    X41       CONSTR3   882
    X41       CONSTR4   789
    X41       CONSTR5   763
    X41       CONSTR6   601
    X41       CONSTR7   935
    X41       CONSTR8   576
    X41       CONSTR9   777
    X41       CONSTR10  346
    X42       OBJ       955
    X42       CONSTR1   919
    X42       CONSTR2   195
    X42       CONSTR3   459
    X42       CONSTR4   801
    X42       CONSTR5   799
    X42       CONSTR6   54
    X42       CONSTR7   753
    X42       CONSTR8   207
    X42       CONSTR9   476
    X42       CONSTR10  742
    X43       OBJ       910
    X43       CONSTR1   872
    X43       CONSTR2   293
    X43       CONSTR3   93
    X43       CONSTR4   319
    X43       CONSTR5   729
    X43       CONSTR6   873
    X43       CONSTR7   424
    X43       CONSTR8   862
    X43       CONSTR9   29
    X43       CONSTR10  334
    X44       OBJ       950
    X44       CONSTR1   778
    X44       CONSTR2   540
    X44       CONSTR3   566
    X44       CONSTR4   208
    X44       CONSTR5   285
    X44       CONSTR6   346
    X44       CONSTR7   779
    X44       CONSTR8   322
    X44       CONSTR9   821
    X44       CONSTR10  819
    X45       OBJ       1061
    X45       CONSTR1   520
    X45       CONSTR2   627
    X45       CONSTR3   353
    X45       CONSTR4   921
    X45       CONSTR5   856
    X45       CONSTR6   619
    X45       CONSTR7   762
    X45       CONSTR8   666
    X45       CONSTR9   928
    X45       CONSTR10  932
    X46       OBJ       751
    X46       CONSTR1   995
    X46       CONSTR2   784
    X46       CONSTR3   238
    X46       CONSTR4   160
    X46       CONSTR5   35
    X46       CONSTR6   792
    X46       CONSTR7   381
    X46       CONSTR8   418
    X46       CONSTR9   78
    X46       CONSTR10  63
    X47       OBJ       847
    X47       CONSTR1   950
    X47       CONSTR2   598
    X47       CONSTR3   261
    X47       CONSTR4   534
    X47       CONSTR5   423
    X47       CONSTR6   726
    X47       CONSTR7   832
    X47       CONSTR8   486
    X47       CONSTR9   183
    X47       CONSTR10  900
    X48       OBJ       624
    X48       CONSTR1   761
    X48       CONSTR2   200
    X48       CONSTR3   27
    X48       CONSTR4   467
    X48       CONSTR5   153
    X48       CONSTR6   393
    X48       CONSTR7   706
    X48       CONSTR8   49
    X48       CONSTR9   586
    X48       CONSTR10  621
    X49       OBJ       807
    X49       CONSTR1   44
    X49       CONSTR2   408
    X49       CONSTR3   734
    X49       CONSTR4   137
    X49       CONSTR5   595
    X49       CONSTR6   773
    X49       CONSTR7   133
    X49       CONSTR8   83
    X49       CONSTR9   994
    X49       CONSTR10  800
    X50       OBJ       574
    X50       CONSTR1   336
    X50       CONSTR2   22
    X50       CONSTR3   722
    X50       CONSTR4   784
    X50       CONSTR5   46
    X50       CONSTR6   488
    X50       CONSTR7   654
    X50       CONSTR8   209
    X50       CONSTR9   865
    X50       CONSTR10  679
    X51       OBJ       683
    X51       CONSTR1   944
    X51       CONSTR2   326
    X51       CONSTR3   578
    X51       CONSTR4   127
    X51       CONSTR5   79
    X51       CONSTR6   817
    X51       CONSTR7   441
    X51       CONSTR8   885
    X51       CONSTR9   324
    X51       CONSTR10  182
    X52       OBJ       778
    X52       CONSTR1   262
    X52       CONSTR2   826
    X52       CONSTR3   738
    X52       CONSTR4   137
    X52       CONSTR5   103
    X52       CONSTR6   89
    X52       CONSTR7   828
    X52       CONSTR8   598
    X52       CONSTR9   89
    X52       CONSTR10  552
    X53       OBJ       1038
    X53       CONSTR1   379
    X53       CONSTR2   746
    X53       CONSTR3   676
    X53       CONSTR4   49
    X53       CONSTR5   614
    X53       CONSTR6   348
    X53       CONSTR7   475
    X53       CONSTR8   825
    X53       CONSTR9   455
    X53       CONSTR10  972
    X54       OBJ       616
    X54       CONSTR1   1000
    X54       CONSTR2   405
    X54       CONSTR3   196
    X54       CONSTR4   75
    X54       CONSTR5   50
    X54       CONSTR6   422
    X54       CONSTR7   89
    X54       CONSTR8   710
    X54       CONSTR9   534
    X54       CONSTR10  101
    X55       OBJ       973
    X55       CONSTR1   251
    X55       CONSTR2   868
    X55       CONSTR3   215
    X55       CONSTR4   965
    X55       CONSTR5   657
    X55       CONSTR6   582
    X55       CONSTR7   696
    X55       CONSTR8   636
    X55       CONSTR9   895
    X55       CONSTR10  952
    X56       OBJ       1006
    X56       CONSTR1   979
    X56       CONSTR2   172
    X56       CONSTR3   747
    X56       CONSTR4   38
    X56       CONSTR5   729
    X56       CONSTR6   917
    X56       CONSTR7   496
    X56       CONSTR8   778
    X56       CONSTR9   458
    X56       CONSTR10  91
    X57       OBJ       610
    X57       CONSTR1   421
    X57       CONSTR2   704
    X57       CONSTR3   619
    X57       CONSTR4   136
    X57       CONSTR5   701
    X57       CONSTR6   842
    X57       CONSTR7   377
    X57       CONSTR8   9
    X57       CONSTR9   194
    X57       CONSTR10  167
    X58       OBJ       983
    X58       CONSTR1   985
    X58       CONSTR2   801
    X58       CONSTR3   222
    X58       CONSTR4   217
    X58       CONSTR5   211
    X58       CONSTR6   836
    X58       CONSTR7   342
    X58       CONSTR8   783
    X58       CONSTR9   745
    X58       CONSTR10  411
    X59       OBJ       554
    X59       CONSTR1   908
    X59       CONSTR2   337
    X59       CONSTR3   287
    X59       CONSTR4   305
    X59       CONSTR5   93
    X59       CONSTR6   217
    X59       CONSTR7   876
    X59       CONSTR8   956
    X59       CONSTR9   141
    X59       CONSTR10  819
    X60       OBJ       1002
    X60       CONSTR1   505
    X60       CONSTR2   870
    X60       CONSTR3   453
    X60       CONSTR4   623
    X60       CONSTR5   668
    X60       CONSTR6   200
    X60       CONSTR7   711
    X60       CONSTR8   792
    X60       CONSTR9   387
    X60       CONSTR10  659
    X61       OBJ       719
    X61       CONSTR1   366
    X61       CONSTR2   170
    X61       CONSTR3   257
    X61       CONSTR4   504
    X61       CONSTR5   222
    X61       CONSTR6   217
    X61       CONSTR7   199
    X61       CONSTR8   742
    X61       CONSTR9   807
    X61       CONSTR10  350
    X62       OBJ       500
    X62       CONSTR1   62
    X62       CONSTR2   385
    X62       CONSTR3   78
    X62       CONSTR4   61
    X62       CONSTR5   971
    X62       CONSTR6   289
    X62       CONSTR7   418
    X62       CONSTR8   47
    X62       CONSTR9   43
    X62       CONSTR10  182
    X63       OBJ       713
    X63       CONSTR1   484
    X63       CONSTR2   517
    X63       CONSTR3   359
    X63       CONSTR4   191
    X63       CONSTR5   926
    X63       CONSTR6   277
    X63       CONSTR7   69
    X63       CONSTR8   408
    X63       CONSTR9   706
    X63       CONSTR10  550
    X64       OBJ       714
    X64       CONSTR1   906
    X64       CONSTR2   501
    X64       CONSTR3   749
    X64       CONSTR4   330
    X64       CONSTR5   765
    X64       CONSTR6   808
    X64       CONSTR7   873
    X64       CONSTR8   646
    X64       CONSTR9   471
    X64       CONSTR10  253
    X65       OBJ       898
    X65       CONSTR1   717
    X65       CONSTR2   202
    X65       CONSTR3   527
    X65       CONSTR4   727
    X65       CONSTR5   442
    X65       CONSTR6   833
    X65       CONSTR7   9
    X65       CONSTR8   753
    X65       CONSTR9   58
    X65       CONSTR10  882
    X66       OBJ       584
    X66       CONSTR1   475
    X66       CONSTR2   121
    X66       CONSTR3   564
    X66       CONSTR4   647
    X66       CONSTR5   326
    X66       CONSTR6   903
    X66       CONSTR7   613
    X66       CONSTR8   899
    X66       CONSTR9   990
    X66       CONSTR10  184
    X67       OBJ       582
    X67       CONSTR1   624
    X67       CONSTR2   301
    X67       CONSTR3   51
    X67       CONSTR4   489
    X67       CONSTR5   101
    X67       CONSTR6   352
    X67       CONSTR7   377
    X67       CONSTR8   577
    X67       CONSTR9   779
    X67       CONSTR10  136
    X68       OBJ       810
    X68       CONSTR1   85
    X68       CONSTR2   522
    X68       CONSTR3   438
    X68       CONSTR4   831
    X68       CONSTR5   46
    X68       CONSTR6   766
    X68       CONSTR7   555
    X68       CONSTR8   731
    X68       CONSTR9   975
    X68       CONSTR10  127
    X69       OBJ       691
    X69       CONSTR1   803
    X69       CONSTR2   224
    X69       CONSTR3   847
    X69       CONSTR4   300
    X69       CONSTR5   327
    X69       CONSTR6   611
    X69       CONSTR7   388
    X69       CONSTR8   843
    X69       CONSTR9   827
    X69       CONSTR10  640
    X70       OBJ       1074
    X70       CONSTR1   771
    X70       CONSTR2   328
    X70       CONSTR3   486
    X70       CONSTR4   551
    X70       CONSTR5   565
    X70       CONSTR6   532
    X70       CONSTR7   891
    X70       CONSTR8   813
    X70       CONSTR9   842
    X70       CONSTR10  157
    X71       OBJ       744
    X71       CONSTR1   258
    X71       CONSTR2   417
    X71       CONSTR3   913
    X71       CONSTR4   110
    X71       CONSTR5   271
    X71       CONSTR6   168
    X71       CONSTR7   698
    X71       CONSTR8   572
    X71       CONSTR9   86
    X71       CONSTR10  882
    X72       OBJ       553
    X72       CONSTR1   407
    X72       CONSTR2   193
    X72       CONSTR3   175
    X72       CONSTR4   760
    X72       CONSTR5   206
    X72       CONSTR6   234
    X72       CONSTR7   713
    X72       CONSTR8   721
    X72       CONSTR9   536
    X72       CONSTR10  289
    X73       OBJ       1108
    X73       CONSTR1   276
    X73       CONSTR2   300
    X73       CONSTR3   958
    X73       CONSTR4   864
    X73       CONSTR5   851
    X73       CONSTR6   937
    X73       CONSTR7   417
    X73       CONSTR8   707
    X73       CONSTR9   443
    X73       CONSTR10  638
    X74       OBJ       673
    X74       CONSTR1   513
    X74       CONSTR2   745
    X74       CONSTR3   843
    X74       CONSTR4   438
    X74       CONSTR5   748
    X74       CONSTR6   98
    X74       CONSTR7   162
    X74       CONSTR8   426
    X74       CONSTR9   546
    X74       CONSTR10  575
    X75       OBJ       589
    X75       CONSTR1   225
    X75       CONSTR2   318
    X75       CONSTR3   95
    X75       CONSTR4   936
    X75       CONSTR5   701
    X75       CONSTR6   444
    X75       CONSTR7   17
    X75       CONSTR8   564
    X75       CONSTR9   643
    X75       CONSTR10  624
    X76       OBJ       795
    X76       CONSTR1   618
    X76       CONSTR2   620
    X76       CONSTR3   415
    X76       CONSTR4   978
    X76       CONSTR5   860
    X76       CONSTR6   433
    X76       CONSTR7   723
    X76       CONSTR8   137
    X76       CONSTR9   482
    X76       CONSTR10  71
    X77       OBJ       758
    X77       CONSTR1   183
    X77       CONSTR2   345
    X77       CONSTR3   237
    X77       CONSTR4   954
    X77       CONSTR5   696
    X77       CONSTR6   179
    X77       CONSTR7   131
    X77       CONSTR8   944
    X77       CONSTR9   567
    X77       CONSTR10  838
    X78       OBJ       372
    X78       CONSTR1   80
    X78       CONSTR2   633
    X78       CONSTR3   185
    X78       CONSTR4   453
    X78       CONSTR5   770
    X78       CONSTR6   335
    X78       CONSTR7   273
    X78       CONSTR8   388
    X78       CONSTR9   229
    X78       CONSTR10  178
    X79       OBJ       759
    X79       CONSTR1   9
    X79       CONSTR2   576
    X79       CONSTR3   573
    X79       CONSTR4   625
    X79       CONSTR5   839
    X79       CONSTR6   930
    X79       CONSTR7   433
    X79       CONSTR8   582
    X79       CONSTR9   818
    X79       CONSTR10  249
    X80       OBJ       475
    X80       CONSTR1   663
    X80       CONSTR2   66
    X80       CONSTR3   1
    X80       CONSTR4   969
    X80       CONSTR5   882
    X80       CONSTR6   806
    X80       CONSTR7   266
    X80       CONSTR8   569
    X80       CONSTR9   28
    X80       CONSTR10  379
    X81       OBJ       847
    X81       CONSTR1   773
    X81       CONSTR2   310
    X81       CONSTR3   135
    X81       CONSTR4   265
    X81       CONSTR5   755
    X81       CONSTR6   779
    X81       CONSTR7   216
    X81       CONSTR8   429
    X81       CONSTR9   455
    X81       CONSTR10  4
    X82       OBJ       879
    X82       CONSTR1   603
    X82       CONSTR2   637
    X82       CONSTR3   623
    X82       CONSTR4   786
    X82       CONSTR5   411
    X82       CONSTR6   957
    X82       CONSTR7   675
    X82       CONSTR8   184
    X82       CONSTR9   966
    X82       CONSTR10  375
    X83       OBJ       742
    X83       CONSTR1   106
    X83       CONSTR2   590
    X83       CONSTR3   83
    X83       CONSTR4   19
    X83       CONSTR5   160
    X83       CONSTR6   436
    X83       CONSTR7   523
    X83       CONSTR8   281
    X83       CONSTR9   601
    X83       CONSTR10  507
    X84       OBJ       764
    X84       CONSTR1   594
    X84       CONSTR2   779
    X84       CONSTR3   687
    X84       CONSTR4   28
    X84       CONSTR5   922
    X84       CONSTR6   466
    X84       CONSTR7   599
    X84       CONSTR8   895
    X84       CONSTR9   440
    X84       CONSTR10  756
    X85       OBJ       575
    X85       CONSTR1   483
    X85       CONSTR2   532
    X85       CONSTR3   315
    X85       CONSTR4   454
    X85       CONSTR5   170
    X85       CONSTR6   555
    X85       CONSTR7   633
    X85       CONSTR8   408
    X85       CONSTR9   829
    X85       CONSTR10  344
    X86       OBJ       837
    X86       CONSTR1   332
    X86       CONSTR2   321
    X86       CONSTR3   497
    X86       CONSTR4   21
    X86       CONSTR5   383
    X86       CONSTR6   415
    X86       CONSTR7   542
    X86       CONSTR8   293
    X86       CONSTR9   595
    X86       CONSTR10  833
    X87       OBJ       614
    X87       CONSTR1   969
    X87       CONSTR2   19
    X87       CONSTR3   537
    X87       CONSTR4   818
    X87       CONSTR5   199
    X87       CONSTR6   554
    X87       CONSTR7   517
    X87       CONSTR8   97
    X87       CONSTR9   108
    X87       CONSTR10  488
    X88       OBJ       491
    X88       CONSTR1   953
    X88       CONSTR2   505
    X88       CONSTR3   816
    X88       CONSTR4   614
    X88       CONSTR5   25
    X88       CONSTR6   211
    X88       CONSTR7   111
    X88       CONSTR8   794
    X88       CONSTR9   715
    X88       CONSTR10  137
    X89       OBJ       1068
    X89       CONSTR1   967
    X89       CONSTR2   127
    X89       CONSTR3   511
    X89       CONSTR4   361
    X89       CONSTR5   944
    X89       CONSTR6   891
    X89       CONSTR7   938
    X89       CONSTR8   633
    X89       CONSTR9   54
    X89       CONSTR10  402
    X90       OBJ       685
    X90       CONSTR1   325
    X90       CONSTR2   121
    X90       CONSTR3   583
    X90       CONSTR4   695
    X90       CONSTR5   472
    X90       CONSTR6   880
    X90       CONSTR7   438
    X90       CONSTR8   728
    X90       CONSTR9   389
    X90       CONSTR10  121
    X91       OBJ       498
    X91       CONSTR1   337
    X91       CONSTR2   287
    X91       CONSTR3   512
    X91       CONSTR4   458
    X91       CONSTR5   795
    X91       CONSTR6   678
    X91       CONSTR7   641
    X91       CONSTR8   144
    X91       CONSTR9   259
    X91       CONSTR10  230
    X92       OBJ       654
    X92       CONSTR1   268
    X92       CONSTR2   166
    X92       CONSTR3   482
    X92       CONSTR4   904
    X92       CONSTR5   941
    X92       CONSTR6   325
    X92       CONSTR7   344
    X92       CONSTR8   997
    X92       CONSTR9   480
    X92       CONSTR10  604
    X93       OBJ       507
    X93       CONSTR1   748
    X93       CONSTR2   612
    X93       CONSTR3   248
    X93       CONSTR4   57
    X93       CONSTR5   987
    X93       CONSTR6   45
    X93       CONSTR7   665
    X93       CONSTR8   362
    X93       CONSTR9   58
    X93       CONSTR10  304
    X94       OBJ       871
    X94       CONSTR1   808
    X94       CONSTR2   296
    X94       CONSTR3   901
    X94       CONSTR4   422
    X94       CONSTR5   406
    X94       CONSTR6   235
    X94       CONSTR7   224
    X94       CONSTR8   786
    X94       CONSTR9   500
    X94       CONSTR10  794
    X95       OBJ       815
    X95       CONSTR1   815
    X95       CONSTR2   346
    X95       CONSTR3   595
    X95       CONSTR4   327
    X95       CONSTR5   333
    X95       CONSTR6   402
    X95       CONSTR7   103
    X95       CONSTR8   787
    X95       CONSTR9   393
    X95       CONSTR10  913
    X96       OBJ       700
    X96       CONSTR1   204
    X96       CONSTR2   559
    X96       CONSTR3   110
    X96       CONSTR4   614
    X96       CONSTR5   392
    X96       CONSTR6   123
    X96       CONSTR7   186
    X96       CONSTR8   922
    X96       CONSTR9   225
    X96       CONSTR10  638
    X97       OBJ       612
    X97       CONSTR1   670
    X97       CONSTR2   567
    X97       CONSTR3   483
    X97       CONSTR4   240
    X97       CONSTR5   880
    X97       CONSTR6   940
    X97       CONSTR7   558
    X97       CONSTR8   627
    X97       CONSTR9   939
    X97       CONSTR10  209
    X98       OBJ       835
    X98       CONSTR1   143
    X98       CONSTR2   945
    X98       CONSTR3   928
    X98       CONSTR4   728
    X98       CONSTR5   298
    X98       CONSTR6   1
    X98       CONSTR7   168
    X98       CONSTR8   750
    X98       CONSTR9   40
    X98       CONSTR10  788
    X99       OBJ       1032
    X99       CONSTR1   688
    X99       CONSTR2   412
    X99       CONSTR3   565
    X99       CONSTR4   856
    X99       CONSTR5   810
    X99       CONSTR6   121
    X99       CONSTR7   866
    X99       CONSTR8   110
    X99       CONSTR9   818
    X99       CONSTR10  697
    X100      OBJ       660
    X100      CONSTR1   932
    X100      CONSTR2   91
    X100      CONSTR3   182
    X100      CONSTR4   912
    X100      CONSTR5   522
    X100      CONSTR6   75
    X100      CONSTR7   102
    X100      CONSTR8   928
    X100      CONSTR9   757
    X100      CONSTR10  550
    INT0001   'MARKER'  'INTEND'
RHS
    RHS10001  CONSTR1   40929
    RHS10001  CONSTR2   32340
    RHS10001  CONSTR3   37439
    RHS10001  CONSTR4   37982
    RHS10001  CONSTR5   39675
    RHS10001  CONSTR6   36140
    RHS10001  CONSTR7   34703
    RHS10001  CONSTR8   38191
    RHS10001  CONSTR9   37105
    RHS10001  CONSTR10  34290
BOUNDS
 BV BND       X1        .00
 BV BND       X2        .00
 BV BND       X3        .00
 BV BND       X4        .00
 BV BND       X5        .00
 BV BND       X6        .00
 BV BND       X7        .00
 BV BND       X8        .00
 BV BND       X9        .00
 BV BND       X10       .00
 BV BND       X11       .00
 BV BND       X12       .00
 BV BND       X13       .00
 BV BND       X14       .00
 BV BND       X15       .00
 BV BND       X16       .00
 BV BND       X17       .00
 BV BND       X18       .00
 BV BND       X19       .00
 BV BND       X20       .00
 BV BND       X21       .00
 BV BND       X22       .00
 BV BND       X23       .00
 BV BND       X24       .00
 BV BND       X25       .00
 BV BND       X26       .00
 BV BND       X27       .00
 BV BND       X28       .00
 BV BND       X29       .00
 BV BND       X30       .00
 BV BND       X31       .00
 BV BND       X32       .00
 BV BND       X33       .00
 BV BND       X34       .00
 BV BND       X35       .00
 BV BND       X36       .00
 BV BND       X37       .00
 BV BND       X38       .00
 BV BND       X39       .00
 BV BND       X40       .00
 BV BND       X41       .00
 BV BND       X42       .00
 BV BND       X43       .00
 BV BND       X44       .00
 BV BND       X45       .00
 BV BND       X46       .00
 BV BND       X47       .00
 BV BND       X48       .00
 BV BND       X49       .00
 BV BND       X50       .00
 BV BND       X51       .00
 BV BND       X52       .00
 BV BND       X53       .00
 BV BND       X54       .00
 BV BND       X55       .00
 BV BND       X56       .00
 BV BND       X57       .00
 BV BND       X58       .00
 BV BND       X59       .00
 BV BND       X60       .00
 BV BND       X61       .00
 BV BND       X62       .00
 BV BND       X63       .00
 BV BND       X64       .00
 BV BND       X65       .00
 BV BND       X66       .00
 BV BND       X67       .00
 BV BND       X68       .00
 BV BND       X69       .00
 BV BND       X70       .00
 BV BND       X71       .00
 BV BND       X72       .00
 BV BND       X73       .00
 BV BND       X74       .00
 BV BND       X75       .00
 BV BND       X76       .00
 BV BND       X77       .00
 BV BND       X78       .00
 BV BND       X79       .00
 BV BND       X80       .00
 BV BND       X81       .00
 BV BND       X82       .00
 BV BND       X83       .00
 BV BND       X84       .00
 BV BND       X85       .00
 BV BND       X86       .00
 BV BND       X87       .00
 BV BND       X88       .00
 BV BND       X89       .00
 BV BND       X90       .00
 BV BND       X91       .00
 BV BND       X92       .00
 BV BND       X93       .00
 BV BND       X94       .00
 BV BND       X95       .00
 BV BND       X96       .00
 BV BND       X97       .00
 BV BND       X98       .00
 BV BND       X99       .00
 BV BND       X100      .00
ENDATA
